c "328947.clq"
p edge 100 1344
e 1 17
e 1 18
e 1 19
e 1 20
e 1 21
e 1 22
e 1 24
e 1 25
e 1 27
e 1 30
e 1 31
e 1 34
e 1 35
e 1 37
e 1 38
e 1 39
e 1 47
e 1 49
e 1 58
e 1 62
e 1 71
e 1 73
e 1 77
e 1 83
e 1 85
e 1 95
e 2 17
e 2 18
e 2 19
e 2 20
e 2 22
e 2 23
e 2 24
e 2 25
e 2 26
e 2 29
e 2 33
e 2 34
e 2 39
e 2 40
e 2 41
e 2 42
e 2 44
e 2 45
e 2 47
e 2 51
e 2 53
e 2 61
e 2 65
e 2 66
e 2 70
e 2 76
e 2 77
e 2 78
e 2 88
e 2 93
e 2 98
e 3 17
e 3 18
e 3 20
e 3 21
e 3 22
e 3 23
e 3 24
e 3 31
e 3 36
e 3 37
e 3 45
e 3 65
e 3 66
e 3 67
e 3 71
e 3 72
e 3 76
e 3 89
e 3 98
e 4 17
e 4 18
e 4 19
e 4 20
e 4 22
e 4 27
e 4 30
e 4 31
e 4 33
e 4 35
e 4 36
e 4 37
e 4 41
e 4 43
e 4 49
e 4 52
e 4 55
e 4 58
e 4 61
e 4 66
e 4 70
e 4 71
e 4 72
e 4 74
e 4 85
e 5 17
e 5 18
e 5 19
e 5 20
e 5 21
e 5 23
e 5 27
e 5 28
e 5 32
e 5 43
e 5 44
e 5 50
e 5 54
e 5 55
e 5 57
e 5 79
e 5 83
e 5 90
e 5 94
e 5 98
e 6 17
e 6 18
e 6 22
e 6 38
e 6 41
e 6 45
e 6 46
e 6 50
e 6 53
e 6 54
e 6 56
e 6 64
e 6 71
e 6 73
e 6 74
e 7 17
e 7 18
e 7 19
e 7 21
e 7 23
e 7 24
e 7 25
e 7 26
e 7 27
e 7 29
e 7 30
e 7 33
e 7 35
e 7 38
e 7 40
e 7 43
e 7 44
e 7 53
e 7 57
e 7 67
e 7 70
e 7 73
e 7 77
e 7 78
e 7 81
e 7 97
e 7 100
e 8 17
e 8 18
e 8 19
e 8 20
e 8 21
e 8 23
e 8 24
e 8 25
e 8 26
e 8 28
e 8 30
e 8 37
e 8 38
e 8 39
e 8 40
e 8 41
e 8 45
e 8 46
e 8 47
e 8 49
e 8 57
e 8 59
e 8 72
e 8 79
e 8 80
e 8 81
e 8 86
e 8 100
e 9 17
e 9 18
e 9 19
e 9 20
e 9 21
e 9 22
e 9 23
e 9 24
e 9 26
e 9 27
e 9 29
e 9 30
e 9 31
e 9 33
e 9 35
e 9 44
e 9 45
e 9 46
e 9 48
e 9 49
e 9 50
e 9 52
e 9 53
e 9 56
e 9 62
e 9 64
e 9 67
e 9 69
e 9 71
e 9 82
e 9 84
e 9 94
e 9 98
e 10 17
e 10 18
e 10 19
e 10 20
e 10 21
e 10 22
e 10 23
e 10 24
e 10 27
e 10 28
e 10 29
e 10 31
e 10 32
e 10 33
e 10 34
e 10 35
e 10 36
e 10 37
e 10 38
e 10 40
e 10 47
e 10 50
e 10 55
e 10 58
e 10 60
e 10 61
e 10 63
e 10 73
e 10 74
e 10 82
e 10 85
e 10 87
e 10 89
e 10 92
e 10 95
e 10 98
e 11 17
e 11 18
e 11 19
e 11 20
e 11 21
e 11 25
e 11 27
e 11 30
e 11 33
e 11 39
e 11 42
e 11 54
e 11 76
e 11 87
e 11 88
e 11 96
e 12 17
e 12 18
e 12 19
e 12 21
e 12 22
e 12 23
e 12 24
e 12 26
e 12 28
e 12 31
e 12 34
e 12 45
e 12 47
e 12 52
e 12 58
e 12 60
e 12 68
e 12 75
e 12 79
e 12 82
e 12 83
e 13 17
e 13 18
e 13 19
e 13 20
e 13 21
e 13 22
e 13 23
e 13 25
e 13 28
e 13 29
e 13 30
e 13 33
e 13 35
e 13 44
e 13 50
e 13 54
e 13 58
e 13 60
e 13 66
e 13 79
e 13 87
e 13 99
e 14 17
e 14 18
e 14 19
e 14 20
e 14 21
e 14 23
e 14 25
e 14 26
e 14 28
e 14 30
e 14 34
e 14 36
e 14 40
e 14 41
e 14 46
e 14 48
e 14 52
e 14 56
e 14 57
e 14 62
e 14 67
e 14 68
e 14 78
e 14 79
e 14 85
e 14 93
e 14 97
e 15 17
e 15 19
e 15 20
e 15 22
e 15 23
e 15 24
e 15 26
e 15 27
e 15 28
e 15 29
e 15 30
e 15 44
e 15 52
e 15 74
e 15 79
e 15 88
e 15 95
e 15 97
e 15 100
e 16 17
e 16 18
e 16 19
e 16 20
e 16 21
e 16 22
e 16 25
e 16 32
e 16 33
e 16 35
e 16 36
e 16 38
e 16 40
e 16 41
e 16 51
e 16 54
e 16 55
e 16 59
e 16 65
e 16 68
e 16 69
e 16 74
e 16 79
e 16 89
e 16 93
e 17 18
e 17 19
e 17 20
e 17 21
e 17 22
e 17 23
e 17 24
e 17 25
e 17 26
e 17 28
e 17 29
e 17 30
e 17 31
e 17 32
e 17 34
e 17 36
e 17 37
e 17 38
e 17 39
e 17 42
e 17 44
e 17 45
e 17 46
e 17 48
e 17 50
e 17 51
e 17 52
e 17 53
e 17 54
e 17 55
e 17 56
e 17 58
e 17 59
e 17 60
e 17 61
e 17 62
e 17 63
e 17 66
e 17 67
e 17 68
e 17 69
e 17 70
e 17 71
e 17 77
e 17 78
e 17 80
e 17 82
e 17 86
e 17 93
e 17 94
e 17 97
e 17 98
e 18 19
e 18 20
e 18 21
e 18 22
e 18 23
e 18 24
e 18 25
e 18 26
e 18 27
e 18 28
e 18 30
e 18 32
e 18 36
e 18 39
e 18 40
e 18 42
e 18 43
e 18 48
e 18 51
e 18 54
e 18 59
e 18 62
e 18 64
e 18 68
e 18 70
e 18 71
e 18 73
e 18 76
e 18 77
e 18 78
e 18 81
e 18 84
e 18 86
e 18 94
e 18 97
e 18 100
e 19 20
e 19 21
e 19 22
e 19 23
e 19 24
e 19 25
e 19 26
e 19 27
e 19 28
e 19 31
e 19 32
e 19 33
e 19 35
e 19 36
e 19 37
e 19 38
e 19 40
e 19 43
e 19 44
e 19 45
e 19 48
e 19 49
e 19 50
e 19 51
e 19 53
e 19 55
e 19 56
e 19 57
e 19 58
e 19 59
e 19 60
e 19 61
e 19 62
e 19 65
e 19 66
e 19 68
e 19 76
e 19 78
e 19 84
e 19 86
e 19 87
e 19 90
e 19 91
e 19 95
e 19 98
e 19 100
e 20 21
e 20 22
e 20 23
e 20 24
e 20 25
e 20 26
e 20 27
e 20 28
e 20 29
e 20 30
e 20 31
e 20 32
e 20 33
e 20 34
e 20 35
e 20 36
e 20 37
e 20 39
e 20 40
e 20 41
e 20 42
e 20 43
e 20 44
e 20 48
e 20 50
e 20 51
e 20 52
e 20 53
e 20 55
e 20 56
e 20 60
e 20 61
e 20 62
e 20 64
e 20 66
e 20 68
e 20 70
e 20 71
e 20 77
e 20 80
e 20 83
e 20 95
e 20 96
e 20 97
e 21 22
e 21 24
e 21 25
e 21 26
e 21 27
e 21 28
e 21 29
e 21 30
e 21 31
e 21 34
e 21 35
e 21 36
e 21 38
e 21 41
e 21 42
e 21 43
e 21 44
e 21 47
e 21 49
e 21 54
e 21 55
e 21 62
e 21 64
e 21 67
e 21 69
e 21 74
e 21 76
e 21 78
e 21 84
e 21 88
e 21 89
e 21 93
e 21 94
e 21 96
e 21 98
e 21 99
e 22 23
e 22 24
e 22 25
e 22 26
e 22 27
e 22 29
e 22 30
e 22 31
e 22 32
e 22 34
e 22 37
e 22 39
e 22 40
e 22 42
e 22 43
e 22 44
e 22 46
e 22 47
e 22 48
e 22 49
e 22 51
e 22 55
e 22 56
e 22 57
e 22 58
e 22 59
e 22 60
e 22 62
e 22 63
e 22 64
e 22 65
e 22 69
e 22 72
e 22 73
e 22 79
e 22 83
e 22 84
e 22 87
e 22 90
e 22 91
e 22 92
e 22 95
e 22 99
e 22 100
e 23 24
e 23 25
e 23 26
e 23 27
e 23 28
e 23 29
e 23 31
e 23 32
e 23 35
e 23 36
e 23 37
e 23 38
e 23 39
e 23 41
e 23 42
e 23 43
e 23 45
e 23 47
e 23 51
e 23 52
e 23 56
e 23 60
e 23 64
e 23 66
e 23 68
e 23 74
e 23 81
e 23 82
e 23 87
e 23 93
e 23 99
e 24 25
e 24 26
e 24 27
e 24 28
e 24 29
e 24 31
e 24 32
e 24 33
e 24 34
e 24 36
e 24 37
e 24 38
e 24 39
e 24 42
e 24 47
e 24 48
e 24 53
e 24 67
e 24 71
e 24 73
e 24 79
e 24 81
e 24 89
e 24 95
e 24 99
e 25 26
e 25 27
e 25 29
e 25 30
e 25 31
e 25 32
e 25 33
e 25 35
e 25 37
e 25 40
e 25 42
e 25 47
e 25 51
e 25 55
e 25 56
e 25 57
e 25 61
e 25 63
e 25 64
e 25 66
e 25 70
e 25 80
e 25 82
e 25 83
e 25 90
e 25 96
e 26 28
e 26 29
e 26 34
e 26 36
e 26 39
e 26 40
e 26 41
e 26 43
e 26 44
e 26 46
e 26 48
e 26 49
e 26 50
e 26 52
e 26 55
e 26 56
e 26 57
e 26 61
e 26 63
e 26 69
e 26 70
e 26 72
e 26 81
e 26 86
e 26 88
e 26 92
e 27 28
e 27 29
e 27 30
e 27 31
e 27 32
e 27 33
e 27 35
e 27 37
e 27 39
e 27 40
e 27 41
e 27 47
e 27 48
e 27 50
e 27 51
e 27 53
e 27 55
e 27 57
e 27 59
e 27 60
e 27 62
e 27 63
e 27 65
e 27 69
e 27 71
e 27 74
e 27 77
e 27 83
e 27 84
e 27 85
e 27 87
e 27 90
e 27 95
e 27 96
e 28 29
e 28 32
e 28 33
e 28 36
e 28 41
e 28 43
e 28 46
e 28 49
e 28 50
e 28 53
e 28 55
e 28 63
e 28 64
e 28 68
e 28 71
e 28 75
e 28 77
e 28 79
e 28 80
e 28 81
e 28 85
e 28 90
e 28 91
e 28 93
e 28 95
e 28 97
e 29 31
e 29 32
e 29 33
e 29 34
e 29 36
e 29 37
e 29 38
e 29 40
e 29 41
e 29 43
e 29 44
e 29 45
e 29 46
e 29 51
e 29 52
e 29 54
e 29 57
e 29 64
e 29 66
e 29 69
e 29 70
e 29 75
e 29 76
e 29 84
e 29 85
e 29 88
e 29 91
e 29 92
e 29 96
e 29 99
e 30 32
e 30 34
e 30 37
e 30 38
e 30 39
e 30 40
e 30 41
e 30 42
e 30 43
e 30 47
e 30 48
e 30 53
e 30 57
e 30 58
e 30 60
e 30 61
e 30 63
e 30 66
e 30 67
e 30 69
e 30 70
e 30 72
e 30 75
e 30 76
e 30 77
e 30 78
e 30 82
e 30 83
e 30 98
e 30 99
e 31 32
e 31 33
e 31 34
e 31 35
e 31 38
e 31 39
e 31 40
e 31 42
e 31 43
e 31 44
e 31 45
e 31 46
e 31 48
e 31 50
e 31 51
e 31 53
e 31 55
e 31 57
e 31 68
e 31 69
e 31 83
e 31 84
e 31 86
e 31 87
e 31 91
e 31 92
e 31 93
e 31 100
e 32 34
e 32 38
e 32 41
e 32 42
e 32 48
e 32 49
e 32 58
e 32 61
e 32 65
e 32 66
e 32 67
e 32 75
e 32 83
e 32 89
e 32 97
e 32 98
e 33 34
e 33 35
e 33 36
e 33 41
e 33 45
e 33 46
e 33 50
e 33 54
e 33 57
e 33 59
e 33 68
e 33 69
e 33 71
e 33 74
e 33 75
e 33 76
e 33 81
e 33 84
e 33 88
e 33 91
e 33 93
e 33 94
e 33 97
e 34 35
e 34 37
e 34 45
e 34 54
e 34 61
e 34 67
e 34 71
e 34 72
e 34 73
e 34 75
e 34 77
e 34 99
e 35 42
e 35 47
e 35 53
e 35 56
e 35 58
e 35 60
e 35 62
e 35 74
e 35 75
e 35 79
e 35 80
e 35 81
e 35 83
e 35 84
e 35 92
e 35 93
e 35 95
e 36 42
e 36 45
e 36 50
e 36 51
e 36 53
e 36 58
e 36 62
e 36 65
e 36 74
e 36 75
e 36 82
e 36 87
e 36 92
e 36 97
e 37 38
e 37 39
e 37 42
e 37 49
e 37 52
e 37 54
e 37 55
e 37 70
e 37 72
e 37 91
e 37 95
e 38 39
e 38 43
e 38 49
e 38 50
e 38 58
e 38 59
e 38 61
e 38 63
e 38 64
e 38 65
e 38 67
e 38 68
e 38 80
e 38 86
e 38 87
e 38 89
e 38 92
e 38 95
e 38 96
e 38 98
e 38 99
e 39 45
e 39 46
e 39 48
e 39 49
e 39 50
e 39 60
e 39 63
e 39 65
e 39 78
e 39 80
e 39 82
e 39 83
e 39 85
e 39 88
e 39 91
e 39 92
e 39 94
e 39 98
e 40 44
e 40 46
e 40 47
e 40 54
e 40 69
e 40 73
e 40 85
e 40 90
e 41 47
e 41 48
e 41 52
e 41 61
e 41 70
e 41 77
e 41 85
e 41 89
e 41 90
e 41 93
e 41 99
e 42 43
e 42 45
e 42 48
e 42 53
e 42 56
e 42 59
e 42 60
e 42 64
e 42 65
e 42 70
e 42 72
e 42 73
e 42 74
e 42 77
e 42 78
e 42 81
e 42 86
e 42 87
e 42 88
e 42 91
e 42 92
e 42 93
e 42 94
e 42 95
e 42 98
e 42 99
e 43 44
e 43 46
e 43 47
e 43 49
e 43 52
e 43 56
e 43 67
e 43 72
e 43 80
e 43 84
e 43 86
e 43 92
e 43 94
e 43 99
e 44 46
e 44 49
e 44 51
e 44 52
e 44 54
e 44 69
e 44 77
e 45 46
e 45 53
e 45 67
e 45 81
e 45 88
e 45 89
e 46 63
e 46 73
e 46 76
e 46 91
e 47 56
e 47 57
e 47 58
e 47 60
e 47 61
e 47 65
e 47 66
e 47 68
e 47 73
e 47 75
e 47 84
e 47 90
e 47 96
e 48 49
e 48 51
e 48 52
e 48 54
e 48 56
e 48 59
e 48 65
e 48 69
e 48 71
e 48 72
e 48 73
e 48 76
e 48 80
e 48 85
e 48 91
e 49 55
e 49 57
e 49 59
e 49 60
e 49 64
e 49 67
e 49 74
e 49 75
e 49 80
e 49 83
e 49 100
e 50 51
e 50 52
e 50 59
e 50 63
e 50 74
e 50 77
e 50 78
e 50 80
e 50 91
e 50 92
e 50 97
e 51 63
e 51 66
e 51 71
e 51 78
e 51 79
e 51 83
e 51 89
e 51 90
e 51 96
e 52 62
e 52 64
e 52 76
e 52 79
e 52 80
e 52 89
e 52 90
e 53 54
e 53 57
e 53 60
e 53 62
e 53 64
e 53 66
e 53 68
e 53 74
e 53 79
e 53 91
e 54 56
e 54 58
e 54 59
e 54 61
e 54 63
e 55 61
e 55 62
e 55 63
e 55 78
e 55 94
e 55 96
e 55 100
e 56 59
e 56 62
e 56 68
e 56 69
e 56 73
e 56 81
e 56 82
e 56 86
e 56 89
e 56 96
e 57 58
e 57 59
e 57 65
e 57 70
e 57 84
e 57 85
e 57 87
e 57 89
e 58 79
e 58 97
e 58 99
e 59 65
e 59 71
e 59 75
e 59 76
e 59 78
e 59 80
e 59 84
e 59 93
e 59 98
e 60 63
e 60 67
e 60 72
e 60 84
e 60 94
e 61 64
e 61 65
e 61 66
e 61 68
e 61 72
e 61 82
e 61 100
e 62 79
e 62 89
e 62 90
e 62 96
e 62 100
e 63 67
e 63 75
e 63 76
e 63 80
e 63 98
e 64 69
e 64 70
e 64 82
e 64 85
e 64 90
e 64 95
e 64 96
e 65 70
e 65 75
e 65 77
e 65 78
e 65 82
e 65 86
e 65 89
e 65 92
e 65 99
e 66 72
e 66 73
e 66 80
e 66 81
e 66 82
e 67 75
e 67 86
e 67 88
e 67 96
e 68 74
e 68 76
e 68 82
e 68 88
e 68 93
e 69 72
e 69 73
e 69 81
e 69 86
e 69 87
e 69 92
e 69 94
e 69 97
e 70 84
e 70 87
e 70 91
e 70 97
e 71 72
e 71 75
e 71 77
e 71 85
e 71 90
e 71 99
e 72 76
e 72 95
e 73 86
e 73 88
e 73 96
e 74 81
e 74 86
e 74 90
e 74 91
e 74 92
e 75 88
e 75 91
e 76 83
e 76 86
e 76 100
e 77 78
e 77 88
e 77 90
e 77 100
e 78 83
e 78 94
e 79 81
e 79 82
e 79 85
e 79 88
e 79 92
e 79 99
e 79 100
e 80 87
e 80 89
e 80 93
e 80 96
e 83 85
e 84 87
e 86 93
e 87 94
e 88 100
e 89 94
e 89 97
e 90 94
e 91 95
e 91 97
e 95 98
e 98 100
